benchmarks_vrp/CMT1/fixed_c/CMT1_7.vrp
NAME: CMT1_7
TYPE: CVRP
COMMENT: 524.61 - Cluster Nr.7
DIMENSION: 7
CAPACITY: 160
EDGE_WEIGHT_TYPE: EUC_2D
NODE_COORD_TYPE: TWOD_COORDS
NODE_COORD_SECTION: 
6 31 32
3 32 39
7 30 48
4 30 40
1 38 46
5 25 32
2 20 26
DEPOT_SECTION: 
4
-1
DEMAND_SECTION: 
7 15
6 29
2 9
1 12
4 0
3 5
5 25
EOF
