benchmarks_vrp/CMT1/fixed_c/CMT1_7.tour
NAME: CMT1_7 solution
TYPE: TOUR
TOUR_SECTION:
4 5 2 6 3 1 7 -1
-1
EOF